; benchmark generated from python API
(set-info :status unknown)
(declare-fun R_S1_V1 () Bool)
(declare-fun W_S1_V1 () Bool)
(declare-fun DISJ_W_S1_R_S1 () Bool)
(declare-fun R_E1_V6 () Bool)
(declare-fun W_S1_V6 () Bool)
(declare-fun R_E1_V4 () Bool)
(declare-fun W_S1_V4 () Bool)
(declare-fun W_S1_V3 () Bool)
(declare-fun R_S1_V6 () Bool)
(declare-fun R_S1_V4 () Bool)
(declare-fun R_S1_V5 () Bool)
(declare-fun R_S1_V2 () Bool)
(declare-fun R_S1_V3 () Bool)
(declare-fun R_E2_V1 () Bool)
(declare-fun R_E1_V2 () Bool)
(declare-fun R_E1_V5 () Bool)
(declare-fun R_E2_V6 () Bool)
(declare-fun R_E2_V4 () Bool)
(declare-fun R_E2_V5 () Bool)
(declare-fun DISJ_W_S1_R_E2 () Bool)
(declare-fun W_S1_V5 () Bool)
(declare-fun W_S1_V2 () Bool)
(declare-fun R_E1_V3 () Bool)
(declare-fun R_E1_V1 () Bool)
(declare-fun R_E2_V3 () Bool)
(declare-fun DISJ_W_S1_R_E1 () Bool)
(assert
 (let (($x2743 (not DISJ_W_S1_R_S1)))
 (let (($x42 (not (and W_S1_V6 R_E1_V6))))
 (let (($x69 (not (and W_S1_V4 R_E1_V4))))
 (let (($x5498 (forall ((V2_0 Int) )(forall ((V5_0 Int) )(forall ((V4_0 Int) )(forall ((V6_0 Int) )(forall ((MW_S1_V1 Bool) )(forall ((MW_S1_V3 Bool) )(forall ((MW_S1_V2 Bool) )(forall ((MW_S1_V5 Bool) )(forall ((MW_S1_V4 Bool) )(forall ((MW_S1_V6 Bool) )(forall ((S1_V1_!7162 Int) )(forall ((S1_V1_!7168 Int) )(forall ((S1_V1_!7177 Int) )(forall ((S1_V1_!7184 Int) )(forall ((S1_V3_!7163 Int) )(forall ((S1_V3_!7169 Int) )(forall ((S1_V3_!7178 Int) )(forall ((S1_V3_!7185 Int) )(forall ((S1_V2_!7164 Int) )(forall ((S1_V2_!7170 Int) )(forall ((S1_V2_!7179 Int) )(forall ((S1_V2_!7186 Int) )(forall ((E1_!7159 Int) )(forall ((E1_!7174 Int) )(forall ((E1_!7176 Int) )(forall ((E1_!7183 Int) )(forall ((S1_V5_!7165 Int) )(forall ((S1_V5_!7171 Int) )(forall ((S1_V5_!7180 Int) )(forall ((S1_V5_!7187 Int) )(forall ((E2_!7160 Int) )(forall ((E2_!7161 Int) )(forall ((E2_!7175 Int) )(forall ((S1_V4_!7166 Int) )(forall ((S1_V4_!7172 Int) )(forall ((S1_V4_!7181 Int) )(forall ((S1_V4_!7188 Int) )(forall ((S1_V6_!7167 Int) )(forall ((S1_V6_!7173 Int) )(forall ((S1_V6_!7182 Int) )(forall ((S1_V6_!7189 Int) )(let ((?x3560 (ite MW_S1_V3 S1_V3_!7178 E2_!7175)))
 (let ((?x4993 (+ 1 ?x3560)))
 (let ((?x2612 (ite MW_S1_V3 S1_V3_!7185 ?x4993)))
 (let ((?x885 (ite MW_S1_V3 S1_V3_!7163 E2_!7161)))
 (let ((?x3030 (+ 1 ?x885)))
 (let ((?x2651 (ite MW_S1_V3 S1_V3_!7169 ?x3030)))
 (let (($x639 (and (= (ite MW_S1_V1 S1_V1_!7168 E1_!7159) (ite MW_S1_V1 S1_V1_!7184 E1_!7183)) (= ?x2651 ?x2612) (= (ite MW_S1_V2 S1_V2_!7170 V2_0) (ite MW_S1_V2 S1_V2_!7186 V2_0)) (= (ite MW_S1_V5 S1_V5_!7171 V5_0) (ite MW_S1_V5 S1_V5_!7187 V5_0)) (= (ite MW_S1_V4 S1_V4_!7172 V4_0) (ite MW_S1_V4 S1_V4_!7188 V4_0)) (= (ite MW_S1_V6 S1_V6_!7173 V6_0) (ite MW_S1_V6 S1_V6_!7189 V6_0)))))
 (let (($x5689 (and (not (<= V4_0 E2_!7160)) (not (<= V2_0 E1_!7159)) (not (<= V4_0 E2_!7161)) (not (<= (ite MW_S1_V4 S1_V4_!7166 V4_0) ?x3030)) (>= ?x2651 (+ (- 1) (ite MW_S1_V4 S1_V4_!7172 V4_0))) (>= (ite MW_S1_V1 S1_V1_!7168 E1_!7159) (+ (- 1) (ite MW_S1_V2 S1_V2_!7170 V2_0))) (not (<= V2_0 E1_!7174)) (not (<= V4_0 E2_!7175)) (not (<= V2_0 E1_!7176)) (>= (ite MW_S1_V1 S1_V1_!7177 E1_!7176) (+ (- 1) (ite MW_S1_V2 S1_V2_!7179 V2_0))) (not (<= (ite MW_S1_V4 S1_V4_!7181 V4_0) ?x4993)) (not (<= (ite MW_S1_V2 S1_V2_!7179 V2_0) E1_!7183)) (>= (ite MW_S1_V1 S1_V1_!7184 E1_!7183) (+ (- 1) (ite MW_S1_V2 S1_V2_!7186 V2_0))) (>= ?x2612 (+ (- 1) (ite MW_S1_V4 S1_V4_!7188 V4_0))))))
 (let (($x5108 (= S1_V6_!7189 S1_V6_!7173)))
 (let (($x1451 (and (or (not R_S1_V1) (= E1_!7183 (ite MW_S1_V1 S1_V1_!7162 E1_!7159))) (or (not R_S1_V3) (= ?x3560 ?x885)) (or (not R_S1_V2) (= (ite MW_S1_V2 S1_V2_!7179 V2_0) (ite MW_S1_V2 S1_V2_!7164 V2_0))) (or (not R_S1_V5) (= (ite MW_S1_V5 S1_V5_!7180 V5_0) (ite MW_S1_V5 S1_V5_!7165 V5_0))) (or (not R_S1_V4) (= (ite MW_S1_V4 S1_V4_!7181 V4_0) (ite MW_S1_V4 S1_V4_!7166 V4_0))) (or (not R_S1_V6) (= (ite MW_S1_V6 S1_V6_!7182 V6_0) (ite MW_S1_V6 S1_V6_!7167 V6_0))))))
 (let (($x750 (not $x1451)))
 (let (($x2359 (= S1_V6_!7182 S1_V6_!7189)))
 (let ((?x3189 (ite MW_S1_V6 S1_V6_!7182 V6_0)))
 (let (($x184 (= V6_0 ?x3189)))
 (let (($x1744 (not R_S1_V6)))
 (let (($x3820 (or $x1744 $x184)))
 (let ((?x3387 (ite MW_S1_V4 S1_V4_!7181 V4_0)))
 (let (($x1713 (= V4_0 ?x3387)))
 (let (($x791 (not R_S1_V4)))
 (let (($x1953 (or $x791 $x1713)))
 (let (($x3470 (not R_S1_V5)))
 (let (($x5201 (or $x3470 (= V5_0 (ite MW_S1_V5 S1_V5_!7180 V5_0)))))
 (let ((?x1983 (ite MW_S1_V2 S1_V2_!7179 V2_0)))
 (let (($x418 (= V2_0 ?x1983)))
 (let (($x5291 (not R_S1_V2)))
 (let (($x5077 (or $x5291 $x418)))
 (let (($x1310 (and (or (not R_S1_V1) (= E1_!7176 E1_!7183)) (or (not R_S1_V3) (= E2_!7175 ?x4993)) $x5077 $x5201 $x1953 $x3820)))
 (let (($x4777 (not $x1310)))
 (let (($x3435 (= S1_V6_!7182 S1_V6_!7173)))
 (let (($x3008 (or $x1744 (= V6_0 (ite MW_S1_V6 S1_V6_!7167 V6_0)))))
 (let (($x1346 (or $x791 (= V4_0 (ite MW_S1_V4 S1_V4_!7166 V4_0)))))
 (let (($x2688 (or $x3470 (= V5_0 (ite MW_S1_V5 S1_V5_!7165 V5_0)))))
 (let (($x3181 (or $x5291 (= V2_0 (ite MW_S1_V2 S1_V2_!7164 V2_0)))))
 (let (($x1882 (and (or (not R_S1_V1) (= E1_!7176 (ite MW_S1_V1 S1_V1_!7162 E1_!7159))) (or (not R_S1_V3) (= E2_!7175 ?x3030)) $x3181 $x2688 $x1346 $x3008)))
 (let (($x2396 (not $x1882)))
 (let (($x41 (and (or (not R_S1_V1) (= E1_!7159 E1_!7183)) (or (not R_S1_V3) (= E2_!7161 ?x4993)) $x5077 $x5201 $x1953 $x3820)))
 (let (($x1754 (not $x41)))
 (let (($x2527 (and (or (not R_S1_V1) (= E1_!7159 E1_!7176)) (or (not R_S1_V3) (= E2_!7161 E2_!7175)))))
 (let (($x1296 (not $x2527)))
 (let (($x2994 (and (or (not R_S1_V1) (= E1_!7159 (ite MW_S1_V1 S1_V1_!7162 E1_!7159))) (or (not R_S1_V3) (= E2_!7161 ?x3030)) $x3181 $x2688 $x1346 $x3008)))
 (let (($x2370 (not $x2994)))
 (let (($x3095 (= S1_V4_!7188 S1_V4_!7181)))
 (let (($x3255 (= ?x3189 V6_0)))
 (let (($x1121 (or $x1744 $x3255)))
 (let (($x761 (= ?x3387 V4_0)))
 (let (($x1992 (or $x791 $x761)))
 (let (($x5846 (or $x3470 (= (ite MW_S1_V5 S1_V5_!7180 V5_0) V5_0))))
 (let (($x2398 (= ?x1983 V2_0)))
 (let (($x420 (or $x5291 $x2398)))
 (let (($x267 (and (or (not R_S1_V1) (= E1_!7183 E1_!7176)) (or (not R_S1_V3) (= ?x3560 (+ (- 1) E2_!7175))) $x420 $x5846 $x1992 $x1121)))
 (let (($x1548 (not $x267)))
 (let (($x793 (and (or (not R_S1_V1) (= E1_!7183 E1_!7159)) (or (not R_S1_V3) (= ?x3560 (+ (- 1) E2_!7161))) $x420 $x5846 $x1992 $x1121)))
 (let (($x1807 (not $x793)))
 (let (($x4678 (and (or (not R_S1_V1) (= E1_!7176 E1_!7159)) (or (not R_S1_V3) (= E2_!7175 E2_!7161)))))
 (let (($x922 (not $x4678)))
 (let (($x1876 (or $x1744 (= (ite MW_S1_V6 S1_V6_!7167 V6_0) V6_0))))
 (let (($x2061 (or $x791 (= (ite MW_S1_V4 S1_V4_!7166 V4_0) V4_0))))
 (let (($x1572 (or $x3470 (= (ite MW_S1_V5 S1_V5_!7165 V5_0) V5_0))))
 (let (($x1619 (or $x5291 (= (ite MW_S1_V2 S1_V2_!7164 V2_0) V2_0))))
 (let (($x2536 (and (or (not R_S1_V1) (= (ite MW_S1_V1 S1_V1_!7162 E1_!7159) E1_!7159)) (or (not R_S1_V3) (= ?x885 (+ (- 1) E2_!7161))) $x1619 $x1572 $x2061 $x1876)))
 (let (($x3668 (not $x2536)))
 (let (($x5742 (= S1_V5_!7171 S1_V5_!7180)))
 (let (($x5856 (and (or (not R_S1_V1) (= (ite MW_S1_V1 S1_V1_!7162 E1_!7159) E1_!7176)) (or (not R_S1_V3) (= ?x885 (+ (- 1) E2_!7175))) $x1619 $x1572 $x2061 $x1876)))
 (let (($x2287 (not $x5856)))
 (let (($x498 (= E1_!7183 E1_!7176)))
 (let (($x773 (and (or (not R_E1_V2) $x2398) (or (not R_E1_V4) $x761) (or (not R_E1_V6) $x3255))))
 (let (($x3476 (not $x773)))
 (let (($x746 (= E1_!7174 E1_!7176)))
 (let (($x5777 (= E1_!7159 E1_!7183)))
 (let (($x4238 (and (or (not R_E1_V2) $x418) (or (not R_E1_V4) $x1713) (or (not R_E1_V6) $x184))))
 (let (($x13 (= E1_!7159 E1_!7176)))
 (let (($x1253 (and (or (not R_S1_V1) (= (ite MW_S1_V1 S1_V1_!7162 E1_!7159) E1_!7183)) (or (not R_S1_V3) (= ?x885 ?x3560)) (or $x5291 (= (ite MW_S1_V2 S1_V2_!7164 V2_0) ?x1983)) (or $x3470 (= (ite MW_S1_V5 S1_V5_!7165 V5_0) (ite MW_S1_V5 S1_V5_!7180 V5_0))) (or $x791 (= (ite MW_S1_V4 S1_V4_!7166 V4_0) ?x3387)) (or $x1744 (= (ite MW_S1_V6 S1_V6_!7167 V6_0) ?x3189)))))
 (let (($x5888 (and (or $x2370 (= S1_V1_!7162 S1_V1_!7168)) (or $x1754 (= S1_V1_!7162 S1_V1_!7184)) (or $x922 (= S1_V1_!7177 S1_V1_!7162)) (or $x2396 (= S1_V1_!7177 S1_V1_!7168)) (or $x4777 (= S1_V1_!7177 S1_V1_!7184)) (or $x750 (= S1_V1_!7184 S1_V1_!7168)) (or $x2370 (= S1_V3_!7163 S1_V3_!7169)) (or $x1296 (= S1_V3_!7163 S1_V3_!7178)) (or $x2287 (= S1_V3_!7169 S1_V3_!7178)) (or $x1807 (= S1_V3_!7185 S1_V3_!7163)) (or $x750 (= S1_V3_!7185 S1_V3_!7169)) (or $x1548 (= S1_V3_!7185 S1_V3_!7178)) (or $x2370 (= S1_V2_!7164 S1_V2_!7170)) (or $x1296 (= S1_V2_!7164 S1_V2_!7179)) (or $x1754 (= S1_V2_!7164 S1_V2_!7186)) (or $x2287 (= S1_V2_!7170 S1_V2_!7179)) (or (not $x1253) (= S1_V2_!7170 S1_V2_!7186)) (or $x1548 (= S1_V2_!7186 S1_V2_!7179)) (= E1_!7159 E1_!7174) $x13 (or (not $x4238) $x5777) $x746 (or $x3476 (= E1_!7183 E1_!7174)) (or $x3476 $x498) (or $x1296 (= S1_V5_!7165 S1_V5_!7180)) (or $x3668 (= S1_V5_!7171 S1_V5_!7165)) (or $x2287 $x5742) (or $x1807 (= S1_V5_!7187 S1_V5_!7165)) (or $x750 (= S1_V5_!7187 S1_V5_!7171)) (or $x1548 (= S1_V5_!7187 S1_V5_!7180)) (= E2_!7160 E2_!7161) (or (not (or (not R_E2_V1) (= E1_!7174 E1_!7159))) (= E2_!7175 E2_!7160)) (or (not (or (not R_E2_V1) (= E1_!7174 E1_!7159))) (= E2_!7175 E2_!7161)) (or $x3668 (= S1_V4_!7172 S1_V4_!7166)) (or $x922 (= S1_V4_!7181 S1_V4_!7166)) (or $x2396 (= S1_V4_!7181 S1_V4_!7172)) (or $x1807 (= S1_V4_!7188 S1_V4_!7166)) (or $x750 (= S1_V4_!7188 S1_V4_!7172)) (or $x1548 $x3095) (or $x2370 (= S1_V6_!7167 S1_V6_!7173)) (or $x1296 (= S1_V6_!7167 S1_V6_!7182)) (or $x1754 (= S1_V6_!7167 S1_V6_!7189)) (or $x2396 $x3435) (or $x4777 $x2359) (or $x750 $x5108) (or (not MW_S1_V1) W_S1_V1) (or (not MW_S1_V3) W_S1_V3) (not MW_S1_V2) (or (not MW_S1_V4) W_S1_V4) (or (not MW_S1_V6) W_S1_V6))))
 (or (not $x5888) (not $x5689) $x639)))))))))))))))))))))))))))))))))))))))))))))))))))))))))))))))))))))))))))
 )
 )
 )
 )
 )
 )
 )
 )
 )
 )
 )
 )
 )
 )
 )
 )
 )
 )
 )
 )
 )
 )
 )
 )
 )
 )
 )
 )
 )
 )
 )
 )
 )
 )
 )
 )
 )
 )
 )
 )
 ))
 (let (($x5110 (not R_E1_V5)))
 (let (($x4841 (and W_S1_V6 R_S1_V6)))
 (let (($x2706 (and W_S1_V4 R_S1_V4)))
 (let (($x3218 (and W_S1_V3 R_S1_V3)))
 (let (($x5870 (and W_S1_V1 R_S1_V1)))
 (let (($x3407 (= DISJ_W_S1_R_S1 (not (or $x5870 $x3218 R_S1_V5 $x2706 $x4841)))))
 (let (($x5719 (and W_S1_V6 R_E2_V6)))
 (let (($x2663 (and W_S1_V4 R_E2_V4)))
 (let (($x783 (and W_S1_V1 R_E2_V1)))
 (let (($x2158 (= DISJ_W_S1_R_E2 (not (or $x783 R_E2_V5 $x2663 $x5719)))))
 (let (($x753 (or DISJ_W_S1_R_S1 (not W_S1_V1) (and (not W_S1_V3) (not W_S1_V4)) (and (not R_S1_V1) (not R_S1_V3) (not W_S1_V4)))))
 (let (($x4282 (not W_S1_V2)))
 (let (($x5961 (not R_E1_V3)))
 (let (($x3914 (not R_E1_V1)))
 (let (($x4221 (not R_E2_V3)))
 (let (($x1608 (and DISJ_W_S1_R_E1 $x4221 $x3914 $x5961 $x4282 $x753 W_S1_V5 $x2158 $x3407 $x5110 $x5498 $x69 $x42)))
 (and $x1608 $x2743 W_S1_V1 R_S1_V1))))))))))))))))))))))
(check-sat)
